NAME : E076C09r.1291008.tour
COMMENT : Length = 1291008
COMMENT : Found by LKH [Keld Helsgaun] Tue May  8 13:50:38 2018
TYPE : TOUR
DIMENSION : 84
TOUR_SECTION
1
51
79
7
36
50
48
82
6
8
9
62
20
12
28
25
17
18
41
38
63
56
60
81
68
66
67
71
69
70
13
26
15
16
19
21
23
14
27
22
10
55
5
78
24
77
57
2
54
64
3
52
47
45
61
58
65
84
11
59
72
74
73
76
29
31
40
33
37
42
43
35
34
46
49
39
44
80
30
32
75
83
4
53
-1
EOF
